p cnf 10 15
9 2 -7 5 4 0
6 8 -1 7 10 0
-3 1 9 -2 4 0
2 4 -5 6 8 0
8 4 5 1 -6 0
8 9 3 -5 6 0
6 10 -7 -1 5 0
-7 -5 4 9 -6 0
-9 -4 -5 -7 10 0
4 -2 1 -6 8 0
-5 9 -7 6 -2 0
-5 -10 -9 1 4 0
8 -5 -9 -1 2 0
8 5 -2 -9 -10 0
8 -2 9 4 10 0
